benchmark/results/graph__10-1000-0.10-04_15/graph__10-1000-0.10-04_15_Quinton_Benders_primal_sub.lp
\ This file has been generated by DOcplex
\ ENCODING=ISO-8859-1
\Problem name: Quinton Benders_primal_sub

Maximize
 obj: tau
Subject To
 c1: tau <= 0.001897533207
 c2: y_a0_proc_0 + y_a0_proc_2 + y_a0_proc_3 - tau = 0
 c3: y_a0_proc_0 <= 0
 c4: y_a0_proc_2 <= 1
 c5: y_a0_proc_3 <= 0
 c6: tau <= 0.001293661061
 c7: y_a1_proc_0 + y_a1_proc_1 + y_a1_proc_3 - tau = 0
 c8: y_a1_proc_0 <= 1
 c9: y_a1_proc_1 <= 0
 c10: y_a1_proc_3 <= 0
 c11: tau <= 0.004926108374
 c12: y_a2_proc_0 + y_a2_proc_1 + y_a2_proc_2 + y_a2_proc_3 - tau = 0
 c13: y_a2_proc_0 <= 0
 c14: y_a2_proc_1 <= 1
 c15: y_a2_proc_2 <= 0
 c16: y_a2_proc_3 <= 0
 c17: tau <= 0.000929368030
 c18: y_a3_proc_0 + y_a3_proc_1 + y_a3_proc_2 + y_a3_proc_3 - tau = 0
 c19: y_a3_proc_0 <= 0
 c20: y_a3_proc_1 <= 0
 c21: y_a3_proc_2 <= 1
 c22: y_a3_proc_3 <= 0
 c23: tau <= 0.003571428571
 c24: y_a4_proc_0 + y_a4_proc_1 + y_a4_proc_2 - tau = 0
 c25: y_a4_proc_0 <= 0
 c26: y_a4_proc_1 <= 0
 c27: y_a4_proc_2 <= 1
 c28: tau <= 0.001355013550
 c29: y_a5_proc_0 + y_a5_proc_1 + y_a5_proc_2 + y_a5_proc_3 - tau = 0
 c30: y_a5_proc_0 <= 0
 c31: y_a5_proc_1 <= 0
 c32: y_a5_proc_2 <= 0
 c33: y_a5_proc_3 <= 1
 c34: tau <= 0.001193317422
 c35: y_a6_proc_0 + y_a6_proc_2 + y_a6_proc_3 - tau = 0
 c36: y_a6_proc_0 <= 1
 c37: y_a6_proc_2 <= 0
 c38: y_a6_proc_3 <= 0
 c39: tau <= 0.001212121212
 c40: y_a7_proc_0 + y_a7_proc_1 - tau = 0
 c41: y_a7_proc_0 <= 0
 c42: y_a7_proc_1 <= 1
 c43: tau <= 0.002481389578
 c44: y_a8_proc_0 + y_a8_proc_2 - tau = 0
 c45: y_a8_proc_0 <= 1
 c46: y_a8_proc_2 <= 0
 c47: tau <= 0.001751313485
 c48: y_a9_proc_0 + y_a9_proc_1 + y_a9_proc_3 - tau = 0
 c49: y_a9_proc_0 <= 0
 c50: y_a9_proc_1 <= 0
 c51: y_a9_proc_3 <= 1
 c52: u_a1 - u_a0 - 1118 y_a0_proc_0 - 527 y_a0_proc_2 - 812 y_a0_proc_3 >= 0
 c53: u_a0 - u_a2 - 868 y_a2_proc_0 - 203 y_a2_proc_1 - 1027 y_a2_proc_2
      - 1011 y_a2_proc_3 >= 0
 c54: u_a2 - u_a3 - 646 y_a3_proc_0 - 898 y_a3_proc_1 - 1076 y_a3_proc_2
      - 917 y_a3_proc_3 >= -1
 c55: u_a4 - u_a1 - 773 y_a1_proc_0 - 914 y_a1_proc_1 - 1072 y_a1_proc_3 >= 0
 c56: u_a5 - u_a2 - 868 y_a2_proc_0 - 203 y_a2_proc_1 - 1027 y_a2_proc_2
      - 1011 y_a2_proc_3 >= 0
 c57: u_a3 - u_a6 - 838 y_a6_proc_0 - 1262 y_a6_proc_2 - 959 y_a6_proc_3 >= 0
 c58: u_a2 - u_a7 - 939 y_a7_proc_0 - 825 y_a7_proc_1 >= 0
 c59: u_a6 - u_a8 - 403 y_a8_proc_0 - 700 y_a8_proc_2 >= 0
 c60: u_a7 - u_a9 - 872 y_a9_proc_0 - 1190 y_a9_proc_1 - 571 y_a9_proc_3 >= 0
 c61: u_a3 - u_a4 - 728 y_a4_proc_0 - 677 y_a4_proc_1 - 280 y_a4_proc_2 >= 0
 c62: u_a9 - u_a6 - 838 y_a6_proc_0 - 1262 y_a6_proc_2 - 959 y_a6_proc_3 >= -1
 c63: u_a8 - u_a4 - 728 y_a4_proc_0 - 677 y_a4_proc_1 - 280 y_a4_proc_2 >= 0
 c64: u_a7 - u_a2 - 868 y_a2_proc_0 - 203 y_a2_proc_1 - 1027 y_a2_proc_2
      - 1011 y_a2_proc_3 >= -1
 c65: u_a7 - u_a5 - 956 y_a5_proc_0 - 1082 y_a5_proc_1 - 761 y_a5_proc_2
      - 738 y_a5_proc_3 >= -1
 c66: u_a9 - u_a5 - 956 y_a5_proc_0 - 1082 y_a5_proc_1 - 761 y_a5_proc_2
      - 738 y_a5_proc_3 >= -1
 c67: u_a1 - u_a0 - 812 y_a0_proc_3 >= -3786
 c68: u_a1 - u_a0 - 1118 y_a0_proc_0 >= -2524
 c69: u_a0 - u_a1 - 1072 y_a1_proc_3 >= -1263
 c70: u_a0 - u_a1 - 773 y_a1_proc_0 >= -1
 c71: u_a2 - u_a0 - 527 y_a0_proc_2 >= -2524
 c72: u_a2 - u_a0 - 812 y_a0_proc_3 >= -3786
 c73: u_a2 - u_a0 - 1118 y_a0_proc_0 >= -3786
 c74: u_a0 - u_a2 - 1027 y_a2_proc_2 >= -1
 c75: u_a0 - u_a2 - 1011 y_a2_proc_3 >= -1263
 c76: u_a0 - u_a2 - 868 y_a2_proc_0 >= -1263
 c77: u_a3 - u_a0 - 527 y_a0_proc_2 >= 0
 c78: u_a3 - u_a0 - 812 y_a0_proc_3 >= -2524
 c79: u_a3 - u_a0 - 1118 y_a0_proc_0 >= -2524
 c80: u_a0 - u_a3 - 1076 y_a3_proc_2 >= -1
 c81: u_a0 - u_a3 - 917 y_a3_proc_3 >= -2525
 c82: u_a0 - u_a3 - 646 y_a3_proc_0 >= -2525
 c83: u_a4 - u_a0 - 527 y_a0_proc_2 >= 0
 c84: u_a4 - u_a0 - 1118 y_a0_proc_0 >= -2524
 c85: u_a0 - u_a4 - 280 y_a4_proc_2 >= -1
 c86: u_a0 - u_a4 - 728 y_a4_proc_0 >= -2525
 c87: u_a5 - u_a0 - 527 y_a0_proc_2 >= -2524
 c88: u_a5 - u_a0 - 812 y_a0_proc_3 >= -2524
 c89: u_a5 - u_a0 - 1118 y_a0_proc_0 >= -3786
 c90: u_a0 - u_a5 - 761 y_a5_proc_2 >= -1
 c91: u_a0 - u_a5 - 738 y_a5_proc_3 >= -1
 c92: u_a0 - u_a5 - 956 y_a5_proc_0 >= -1263
 c93: u_a6 - u_a0 - 527 y_a0_proc_2 >= -2524
 c94: u_a6 - u_a0 - 812 y_a0_proc_3 >= -3786
 c95: u_a6 - u_a0 - 1118 y_a0_proc_0 >= -2524
 c96: u_a0 - u_a6 - 1262 y_a6_proc_2 >= -1
 c97: u_a0 - u_a6 - 959 y_a6_proc_3 >= -1263
 c98: u_a0 - u_a6 - 838 y_a6_proc_0 >= -1
 c99: u_a7 - u_a0 - 1118 y_a0_proc_0 >= -5049
 c100: u_a0 - u_a7 - 939 y_a7_proc_0 >= 0
 c101: u_a8 - u_a0 - 527 y_a0_proc_2 >= -2524
 c102: u_a8 - u_a0 - 1118 y_a0_proc_0 >= -2524
 c103: u_a0 - u_a8 - 700 y_a8_proc_2 >= -1
 c104: u_a0 - u_a8 - 403 y_a8_proc_0 >= -1
 c105: u_a9 - u_a0 - 812 y_a0_proc_3 >= -2525
 c106: u_a9 - u_a0 - 1118 y_a0_proc_0 >= -3787
 c107: u_a0 - u_a9 - 571 y_a9_proc_3 >= 0
 c108: u_a0 - u_a9 - 872 y_a9_proc_0 >= -1262
 c109: u_a2 - u_a1 - 1072 y_a1_proc_3 >= -3786
 c110: u_a2 - u_a1 - 773 y_a1_proc_0 >= -2524
 c111: u_a2 - u_a1 - 914 y_a1_proc_1 >= -2524
 c112: u_a1 - u_a2 - 1011 y_a2_proc_3 >= -1263
 c113: u_a1 - u_a2 - 868 y_a2_proc_0 >= -1
 c114: u_a1 - u_a2 - 203 y_a2_proc_1 >= -1
 c115: u_a3 - u_a1 - 1072 y_a1_proc_3 >= -3786
 c116: u_a3 - u_a1 - 773 y_a1_proc_0 >= -2524
 c117: u_a3 - u_a1 - 914 y_a1_proc_1 >= -3786
 c118: u_a1 - u_a3 - 917 y_a3_proc_3 >= -1263
 c119: u_a1 - u_a3 - 646 y_a3_proc_0 >= -1
 c120: u_a1 - u_a3 - 898 y_a3_proc_1 >= -1263
 c121: u_a4 - u_a1 - 773 y_a1_proc_0 >= -2524
 c122: u_a4 - u_a1 - 914 y_a1_proc_1 >= -3786
 c123: u_a1 - u_a4 - 728 y_a4_proc_0 >= -1
 c124: u_a1 - u_a4 - 677 y_a4_proc_1 >= -1263
 c125: u_a5 - u_a1 - 1072 y_a1_proc_3 >= -2524
 c126: u_a5 - u_a1 - 773 y_a1_proc_0 >= -2524
 c127: u_a5 - u_a1 - 914 y_a1_proc_1 >= -3786
 c128: u_a1 - u_a5 - 738 y_a5_proc_3 >= -1
 c129: u_a1 - u_a5 - 956 y_a5_proc_0 >= -1
 c130: u_a1 - u_a5 - 1082 y_a5_proc_1 >= -1263
 c131: u_a6 - u_a1 - 1072 y_a1_proc_3 >= -2524
 c132: u_a6 - u_a1 - 773 y_a1_proc_0 >= 0
 c133: u_a1 - u_a6 - 959 y_a6_proc_3 >= -2525
 c134: u_a1 - u_a6 - 838 y_a6_proc_0 >= -1
 c135: u_a7 - u_a1 - 773 y_a1_proc_0 >= -2525
 c136: u_a7 - u_a1 - 914 y_a1_proc_1 >= -2525
 c137: u_a1 - u_a7 - 939 y_a7_proc_0 >= 0
 c138: u_a1 - u_a7 - 825 y_a7_proc_1 >= 0
 c139: u_a8 - u_a1 - 773 y_a1_proc_0 >= 0
 c140: u_a1 - u_a8 - 403 y_a8_proc_0 >= -1
 c141: u_a9 - u_a1 - 1072 y_a1_proc_3 >= -2525
 c142: u_a9 - u_a1 - 773 y_a1_proc_0 >= -2525
 c143: u_a9 - u_a1 - 914 y_a1_proc_1 >= -3787
 c144: u_a1 - u_a9 - 571 y_a9_proc_3 >= 0
 c145: u_a1 - u_a9 - 872 y_a9_proc_0 >= 0
 c146: u_a1 - u_a9 - 1190 y_a9_proc_1 >= -1262
 c147: u_a3 - u_a2 - 1027 y_a2_proc_2 >= -2524
 c148: u_a3 - u_a2 - 1011 y_a2_proc_3 >= -3786
 c149: u_a3 - u_a2 - 868 y_a2_proc_0 >= -3786
 c150: u_a3 - u_a2 - 203 y_a2_proc_1 >= -2524
 c151: u_a2 - u_a3 - 1076 y_a3_proc_2 >= -1
 c152: u_a2 - u_a3 - 917 y_a3_proc_3 >= -1263
 c153: u_a2 - u_a3 - 646 y_a3_proc_0 >= -1263
 c154: u_a2 - u_a3 - 898 y_a3_proc_1 >= -1
 c155: u_a4 - u_a2 - 1027 y_a2_proc_2 >= -2524
 c156: u_a4 - u_a2 - 868 y_a2_proc_0 >= -3786
 c157: u_a4 - u_a2 - 203 y_a2_proc_1 >= -2524
 c158: u_a2 - u_a4 - 280 y_a4_proc_2 >= -1
 c159: u_a2 - u_a4 - 728 y_a4_proc_0 >= -1263
 c160: u_a2 - u_a4 - 677 y_a4_proc_1 >= -1
 c161: u_a5 - u_a2 - 1027 y_a2_proc_2 >= -3786
 c162: u_a5 - u_a2 - 1011 y_a2_proc_3 >= -2524
 c163: u_a5 - u_a2 - 868 y_a2_proc_0 >= -3786
 c164: u_a5 - u_a2 - 203 y_a2_proc_1 >= -2524
 c165: u_a2 - u_a5 - 761 y_a5_proc_2 >= -1263
 c166: u_a2 - u_a5 - 738 y_a5_proc_3 >= -1
 c167: u_a2 - u_a5 - 956 y_a5_proc_0 >= -1263
 c168: u_a2 - u_a5 - 1082 y_a5_proc_1 >= -1
 c169: u_a6 - u_a2 - 1027 y_a2_proc_2 >= -3786
 c170: u_a6 - u_a2 - 1011 y_a2_proc_3 >= -3786
 c171: u_a6 - u_a2 - 868 y_a2_proc_0 >= -2524
 c172: u_a2 - u_a6 - 1262 y_a6_proc_2 >= -1263
 c173: u_a2 - u_a6 - 959 y_a6_proc_3 >= -1263
 c174: u_a2 - u_a6 - 838 y_a6_proc_0 >= -1
 c175: u_a7 - u_a2 - 868 y_a2_proc_0 >= -2525
 c176: u_a7 - u_a2 - 203 y_a2_proc_1 >= -1
 c177: u_a2 - u_a7 - 939 y_a7_proc_0 >= -2524
 c178: u_a2 - u_a7 - 825 y_a7_proc_1 >= 0
 c179: u_a8 - u_a2 - 1027 y_a2_proc_2 >= -3786
 c180: u_a8 - u_a2 - 868 y_a2_proc_0 >= -2524
 c181: u_a2 - u_a8 - 700 y_a8_proc_2 >= -1263
 c182: u_a2 - u_a8 - 403 y_a8_proc_0 >= -1
 c183: u_a9 - u_a2 - 1011 y_a2_proc_3 >= -2525
 c184: u_a9 - u_a2 - 868 y_a2_proc_0 >= -3787
 c185: u_a9 - u_a2 - 203 y_a2_proc_1 >= -2525
 c186: u_a2 - u_a9 - 571 y_a9_proc_3 >= 0
 c187: u_a2 - u_a9 - 872 y_a9_proc_0 >= -1262
 c188: u_a2 - u_a9 - 1190 y_a9_proc_1 >= 0
 c189: u_a4 - u_a3 - 1076 y_a3_proc_2 >= -1
 c190: u_a4 - u_a3 - 646 y_a3_proc_0 >= -2525
 c191: u_a4 - u_a3 - 898 y_a3_proc_1 >= -2525
 c192: u_a3 - u_a4 - 280 y_a4_proc_2 >= 0
 c193: u_a3 - u_a4 - 728 y_a4_proc_0 >= -2524
 c194: u_a3 - u_a4 - 677 y_a4_proc_1 >= -2524
 c195: u_a5 - u_a3 - 1076 y_a3_proc_2 >= -2525
 c196: u_a5 - u_a3 - 917 y_a3_proc_3 >= -2525
 c197: u_a5 - u_a3 - 646 y_a3_proc_0 >= -3787
 c198: u_a5 - u_a3 - 898 y_a3_proc_1 >= -3787
 c199: u_a3 - u_a5 - 761 y_a5_proc_2 >= 0
 c200: u_a3 - u_a5 - 738 y_a5_proc_3 >= 0
 c201: u_a3 - u_a5 - 956 y_a5_proc_0 >= -1262
 c202: u_a3 - u_a5 - 1082 y_a5_proc_1 >= -1262
 c203: u_a6 - u_a3 - 1076 y_a3_proc_2 >= -2525
 c204: u_a6 - u_a3 - 917 y_a3_proc_3 >= -3787
 c205: u_a6 - u_a3 - 646 y_a3_proc_0 >= -2525
 c206: u_a3 - u_a6 - 1262 y_a6_proc_2 >= 0
 c207: u_a3 - u_a6 - 959 y_a6_proc_3 >= -1262
 c208: u_a3 - u_a6 - 838 y_a6_proc_0 >= 0
 c209: u_a7 - u_a3 - 646 y_a3_proc_0 >= -2135
 c210: u_a7 - u_a3 - 898 y_a3_proc_1 >= -873
 c211: u_a3 - u_a7 - 939 y_a7_proc_0 >= -2914
 c212: u_a3 - u_a7 - 825 y_a7_proc_1 >= -1652
 c213: u_a8 - u_a3 - 1076 y_a3_proc_2 >= -2525
 c214: u_a8 - u_a3 - 646 y_a3_proc_0 >= -2525
 c215: u_a3 - u_a8 - 700 y_a8_proc_2 >= 0
 c216: u_a3 - u_a8 - 403 y_a8_proc_0 >= 0
 c217: u_a9 - u_a3 - 917 y_a3_proc_3 >= -2525
 c218: u_a9 - u_a3 - 646 y_a3_proc_0 >= -3787
 c219: u_a9 - u_a3 - 898 y_a3_proc_1 >= -3787
 c220: u_a3 - u_a9 - 571 y_a9_proc_3 >= 0
 c221: u_a3 - u_a9 - 872 y_a9_proc_0 >= -1262
 c222: u_a3 - u_a9 - 1190 y_a9_proc_1 >= -1262
 c223: u_a5 - u_a4 - 280 y_a4_proc_2 >= -2525
 c224: u_a5 - u_a4 - 728 y_a4_proc_0 >= -3787
 c225: u_a5 - u_a4 - 677 y_a4_proc_1 >= -3787
 c226: u_a4 - u_a5 - 761 y_a5_proc_2 >= 0
 c227: u_a4 - u_a5 - 956 y_a5_proc_0 >= -1262
 c228: u_a4 - u_a5 - 1082 y_a5_proc_1 >= -1262
 c229: u_a6 - u_a4 - 280 y_a4_proc_2 >= -2524
 c230: u_a6 - u_a4 - 728 y_a4_proc_0 >= -2524
 c231: u_a4 - u_a6 - 1262 y_a6_proc_2 >= -1
 c232: u_a4 - u_a6 - 838 y_a6_proc_0 >= -1
 c233: u_a7 - u_a4 - 728 y_a4_proc_0 >= -3787
 c234: u_a7 - u_a4 - 677 y_a4_proc_1 >= -2525
 c235: u_a4 - u_a7 - 939 y_a7_proc_0 >= -1262
 c236: u_a4 - u_a7 - 825 y_a7_proc_1 >= 0
 c237: u_a8 - u_a4 - 280 y_a4_proc_2 >= -2524
 c238: u_a8 - u_a4 - 728 y_a4_proc_0 >= -2524
 c239: u_a4 - u_a8 - 700 y_a8_proc_2 >= -1
 c240: u_a4 - u_a8 - 403 y_a8_proc_0 >= -1
 c241: u_a9 - u_a4 - 728 y_a4_proc_0 >= -5049
 c242: u_a9 - u_a4 - 677 y_a4_proc_1 >= -5049
 c243: u_a4 - u_a9 - 872 y_a9_proc_0 >= 0
 c244: u_a4 - u_a9 - 1190 y_a9_proc_1 >= 0
 c245: u_a6 - u_a5 - 761 y_a5_proc_2 >= -3786
 c246: u_a6 - u_a5 - 738 y_a5_proc_3 >= -2524
 c247: u_a6 - u_a5 - 956 y_a5_proc_0 >= -2524
 c248: u_a5 - u_a6 - 1262 y_a6_proc_2 >= -1263
 c249: u_a5 - u_a6 - 959 y_a6_proc_3 >= -1
 c250: u_a5 - u_a6 - 838 y_a6_proc_0 >= -1
 c251: u_a7 - u_a5 - 956 y_a5_proc_0 >= -3787
 c252: u_a7 - u_a5 - 1082 y_a5_proc_1 >= -2525
 c253: u_a5 - u_a7 - 939 y_a7_proc_0 >= -1262
 c254: u_a5 - u_a7 - 825 y_a7_proc_1 >= 0
 c255: u_a8 - u_a5 - 761 y_a5_proc_2 >= -3786
 c256: u_a8 - u_a5 - 956 y_a5_proc_0 >= -2524
 c257: u_a5 - u_a8 - 700 y_a8_proc_2 >= -1263
 c258: u_a5 - u_a8 - 403 y_a8_proc_0 >= -1
 c259: u_a9 - u_a5 - 738 y_a5_proc_3 >= -1
 c260: u_a9 - u_a5 - 956 y_a5_proc_0 >= -2525
 c261: u_a9 - u_a5 - 1082 y_a5_proc_1 >= -2525
 c262: u_a5 - u_a9 - 571 y_a9_proc_3 >= 0
 c263: u_a5 - u_a9 - 872 y_a9_proc_0 >= -2524
 c264: u_a5 - u_a9 - 1190 y_a9_proc_1 >= -2524
 c265: u_a7 - u_a6 - 838 y_a6_proc_0 >= -2525
 c266: u_a6 - u_a7 - 939 y_a7_proc_0 >= 0
 c267: u_a8 - u_a6 - 1262 y_a6_proc_2 >= -2525
 c268: u_a8 - u_a6 - 838 y_a6_proc_0 >= -1
 c269: u_a6 - u_a8 - 700 y_a8_proc_2 >= -2524
 c270: u_a6 - u_a8 - 403 y_a8_proc_0 >= 0
 c271: u_a9 - u_a6 - 959 y_a6_proc_3 >= -2525
 c272: u_a9 - u_a6 - 838 y_a6_proc_0 >= -2525
 c273: u_a6 - u_a9 - 571 y_a9_proc_3 >= 0
 c274: u_a6 - u_a9 - 872 y_a9_proc_0 >= 0
 c275: u_a8 - u_a7 - 939 y_a7_proc_0 >= -2524
 c276: u_a7 - u_a8 - 403 y_a8_proc_0 >= -1
 c277: u_a9 - u_a7 - 939 y_a7_proc_0 >= -3786
 c278: u_a9 - u_a7 - 825 y_a7_proc_1 >= -2524
 c279: u_a7 - u_a9 - 872 y_a9_proc_0 >= -1263
 c280: u_a7 - u_a9 - 1190 y_a9_proc_1 >= -1
 c281: u_a9 - u_a8 - 403 y_a8_proc_0 >= -2525
 c282: u_a8 - u_a9 - 872 y_a9_proc_0 >= 0

Bounds
End
