benchmark/results/graph__10-1000-0.10-04_15/graph__10-1000-0.10-04_15_Quinton_Benders_primal_sub.txt
solution for: Quinton Benders_primal_sub
objective: 0.000226244
status: OPTIMAL_SOLUTION(2)
u_a0=0.362
u_a1=0.481
u_a2=0.316
u_a3=1.000
u_a4=0.656
u_a5=0.656
u_a6=0.810
u_a7=0.129
u_a8=0.719
tau=0.000
y_a0_proc_2=0.000
y_a1_proc_0=0.000
y_a2_proc_1=0.000
y_a3_proc_2=0.000
y_a4_proc_2=0.000
y_a5_proc_3=0.000
y_a6_proc_0=0.000
y_a7_proc_1=0.000
y_a8_proc_0=0.000
y_a9_proc_3=0.000
